# GRAVITY 9.81  VISCOSITY 1.0E-6   ! dimension & output options & G/V
101 301 101 1 144 145 146 0  
 INTERNAL  1  (FREE)  -1  IA_SWF()
 2 3 3 3 3 3 3 3 3 3
 3 3 3 3 3 3 3 3 3 3
 3 3 3 3 3 3 3 3 3 3
 3 3 3 3 3 3 3 3 3 3
 3 3 3 3 3 3 3 3 3 3
 3 3 3 3 3 3 3 3 3 3
 3 3 3 3 3 3 3 3 3 3
 3 3 3 3 3 3 3 3 3 3
 3 3 3 3 3 3 3 3 3 3
 3 3 3 3 3 3 3 3 3 3
 2
INTERNAL  1  (FREE)  -1  JA_SWF()
 1 2
 2 1 3
 3 2 4
 4 3 5
 5 4 6
 6 5 7
 7 6 8
 8 7 9
 9 8 10
 10 9 11
 11 10 12
 12 11 13
 13 12 14
 14 13 15
 15 14 16
 16 15 17
 17 16 18
 18 17 19
 19 18 20
 20 19 21
 21 20 22
 22 21 23
 23 22 24
 24 23 25
 25 24 26
 26 25 27
 27 26 28
 28 27 29
 29 28 30
 30 29 31
 31 30 32
 32 31 33
 33 32 34
 34 33 35
 35 34 36
 36 35 37
 37 36 38
 38 37 39
 39 38 40
 40 39 41
 41 40 42
 42 41 43
 43 42 44
 44 43 45
 45 44 46
 46 45 47
 47 46 48
 48 47 49
 49 48 50
 50 49 51
 51 50 52
 52 51 53
 53 52 54
 54 53 55
 55 54 56
 56 55 57
 57 56 58
 58 57 59
 59 58 60
 60 59 61
 61 60 62
 62 61 63
 63 62 64
 64 63 65
 65 64 66
 66 65 67
 67 66 68
 68 67 69
 69 68 70
 70 69 71
 71 70 72
 72 71 73
 73 72 74
 74 73 75
 75 74 76
 76 75 77
 77 76 78
 78 77 79
 79 78 80
 80 79 81
 81 80 82
 82 81 83
 83 82 84
 84 83 85
 85 84 86
 86 85 87
 87 86 88
 88 87 89
 89 88 90
 90 89 91
 91 90 92
 92 91 93
 93 92 94
 94 93 95
 95 94 96
 96 95 97
 97 96 98
 98 97 99
 99 98 100
 100 99 101
 101 100
1	1	1.00E+00	2.00E+00	0
2	1	1.00E+00	1.99E+00	0
3	1	1.00E+00	1.98E+00	0
4	1	1.00E+00	1.97E+00	0
5	1	1.00E+00	1.96E+00	0
6	1	1.00E+00	1.95E+00	0
7	1	1.00E+00	1.94E+00	0
8	1	1.00E+00	1.93E+00	0
9	1	1.00E+00	1.92E+00	0
10	1	1.00E+00	1.91E+00	0
11	1	1.00E+00	1.90E+00	0
12	1	1.00E+00	1.89E+00	0
13	1	1.00E+00	1.88E+00	0
14	1	1.00E+00	1.87E+00	0
15	1	1.00E+00	1.86E+00	0
16	1	1.00E+00	1.85E+00	0
17	1	1.00E+00	1.84E+00	0
18	1	1.00E+00	1.83E+00	0
19	1	1.00E+00	1.82E+00	0
20	1	1.00E+00	1.81E+00	0
21	1	1.00E+00	1.80E+00	0
22	1	1.00E+00	1.79E+00	0
23	1	1.00E+00	1.78E+00	0
24	1	1.00E+00	1.77E+00	0
25	1	1.00E+00	1.76E+00	0
26	1	1.00E+00	1.75E+00	0
27	1	1.00E+00	1.74E+00	0
28	1	1.00E+00	1.73E+00	0
29	1	1.00E+00	1.72E+00	0
30	1	1.00E+00	1.71E+00	0
31	1	1.00E+00	1.70E+00	0
32	1	1.00E+00	1.69E+00	0
33	1	1.00E+00	1.68E+00	0
34	1	1.00E+00	1.67E+00	0
35	1	1.00E+00	1.66E+00	0
36	1	1.00E+00	1.65E+00	0
37	1	1.00E+00	1.64E+00	0
38	1	1.00E+00	1.63E+00	0
39	1	1.00E+00	1.62E+00	0
40	1	1.00E+00	1.61E+00	0
41	1	1.00E+00	1.60E+00	0
42	1	1.00E+00	1.59E+00	0
43	1	1.00E+00	1.58E+00	0
44	1	1.00E+00	1.57E+00	0
45	1	1.00E+00	1.56E+00	0
46	1	1.00E+00	1.55E+00	0
47	1	1.00E+00	1.54E+00	0
48	1	1.00E+00	1.53E+00	0
49	1	1.00E+00	1.52E+00	0
50	1	1.00E+00	1.51E+00	0
51	1	1.00E+00	1.50E+00	0
52	1	1.00E+00	1.49E+00	0
53	1	1.00E+00	1.48E+00	0
54	1	1.00E+00	1.47E+00	0
55	1	1.00E+00	1.46E+00	0
56	1	1.00E+00	1.45E+00	0
57	1	1.00E+00	1.44E+00	0
58	1	1.00E+00	1.43E+00	0
59	1	1.00E+00	1.42E+00	0
60	1	1.00E+00	1.41E+00	0
61	1	1.00E+00	1.40E+00	0
62	1	1.00E+00	1.39E+00	0
63	1	1.00E+00	1.38E+00	0
64	1	1.00E+00	1.37E+00	0
65	1	1.00E+00	1.36E+00	0
66	1	1.00E+00	1.35E+00	0
67	1	1.00E+00	1.34E+00	0
68	1	1.00E+00	1.33E+00	0
69	1	1.00E+00	1.32E+00	0
70	1	1.00E+00	1.31E+00	0
71	1	1.00E+00	1.30E+00	0
72	1	1.00E+00	1.29E+00	0
73	1	1.00E+00	1.28E+00	0
74	1	1.00E+00	1.27E+00	0
75	1	1.00E+00	1.26E+00	0
76	1	1.00E+00	1.25E+00	0
77	1	1.00E+00	1.24E+00	0
78	1	1.00E+00	1.23E+00	0
79	1	1.00E+00	1.22E+00	0
80	1	1.00E+00	1.21E+00	0
81	1	1.00E+00	1.20E+00	0
82	1	1.00E+00	1.19E+00	0
83	1	1.00E+00	1.18E+00	0
84	1	1.00E+00	1.17E+00	0
85	1	1.00E+00	1.16E+00	0
86	1	1.00E+00	1.15E+00	0
87	1	1.00E+00	1.14E+00	0
88	1	1.00E+00	1.13E+00	0
89	1	1.00E+00	1.12E+00	0
90	1	1.00E+00	1.11E+00	0
91	1	1.00E+00	1.10E+00	0
92	1	1.00E+00	1.09E+00	0
93	1	1.00E+00	1.08E+00	0
94	1	1.00E+00	1.07E+00	0
95	1	1.00E+00	1.06E+00	0
96	1	1.00E+00	1.05E+00	0
97	1	1.00E+00	1.04E+00	0
98	1	1.00E+00	1.03E+00	0
99	1	1.00E+00	1.02E+00	0
100	1	1.00E+00	1.01E+00	0
101	1	1.00E+00	1.00E+00	0
1	1	1	1.00E-03	1.00E+00	0
2	2	1	1.00E-03	1.00E+00	0
3	3	1	1.00E-03	1.00E+00	0
4	4	1	1.00E-03	1.00E+00	0
5	5	1	1.00E-03	1.00E+00	0
6	6	1	1.00E-03	1.00E+00	0
7	7	1	1.00E-03	1.00E+00	0
8	8	1	1.00E-03	1.00E+00	0
9	9	1	1.00E-03	1.00E+00	0
10	10	1	1.00E-03	1.00E+00	0
11	11	1	1.00E-03	1.00E+00	0
12	12	1	1.00E-03	1.00E+00	0
13	13	1	1.00E-03	1.00E+00	0
14	14	1	1.00E-03	1.00E+00	0
15	15	1	1.00E-03	1.00E+00	0
16	16	1	1.00E-03	1.00E+00	0
17	17	1	1.00E-03	1.00E+00	0
18	18	1	1.00E-03	1.00E+00	0
19	19	1	1.00E-03	1.00E+00	0
20	20	1	1.00E-03	1.00E+00	0
21	21	1	1.00E-03	1.00E+00	0
22	22	1	1.00E-03	1.00E+00	0
23	23	1	1.00E-03	1.00E+00	0
24	24	1	1.00E-03	1.00E+00	0
25	25	1	1.00E-03	1.00E+00	0
26	26	1	1.00E-03	1.00E+00	0
27	27	1	1.00E-03	1.00E+00	0
28	28	1	1.00E-03	1.00E+00	0
29	29	1	1.00E-03	1.00E+00	0
30	30	1	1.00E-03	1.00E+00	0
31	31	1	1.00E-03	1.00E+00	0
32	32	1	1.00E-03	1.00E+00	0
33	33	1	1.00E-03	1.00E+00	0
34	34	1	1.00E-03	1.00E+00	0
35	35	1	1.00E-03	1.00E+00	0
36	36	1	1.00E-03	1.00E+00	0
37	37	1	1.00E-03	1.00E+00	0
38	38	1	1.00E-03	1.00E+00	0
39	39	1	1.00E-03	1.00E+00	0
40	40	1	1.00E-03	1.00E+00	0
41	41	1	1.00E-03	1.00E+00	0
42	42	1	1.00E-03	1.00E+00	0
43	43	1	1.00E-03	1.00E+00	0
44	44	1	1.00E-03	1.00E+00	0
45	45	1	1.00E-03	1.00E+00	0
46	46	1	1.00E-03	1.00E+00	0
47	47	1	1.00E-03	1.00E+00	0
48	48	1	1.00E-03	1.00E+00	0
49	49	1	1.00E-03	1.00E+00	0
50	50	1	1.00E-03	1.00E+00	0
51	51	1	1.00E-03	1.00E+00	0
52	52	1	1.00E-03	1.00E+00	0
53	53	1	1.00E-03	1.00E+00	0
54	54	1	1.00E-03	1.00E+00	0
55	55	1	1.00E-03	1.00E+00	0
56	56	1	1.00E-03	1.00E+00	0
57	57	1	1.00E-03	1.00E+00	0
58	58	1	1.00E-03	1.00E+00	0
59	59	1	1.00E-03	1.00E+00	0
60	60	1	1.00E-03	1.00E+00	0
61	61	1	1.00E-03	1.00E+00	0
62	62	1	1.00E-03	1.00E+00	0
63	63	1	1.00E-03	1.00E+00	0
64	64	1	1.00E-03	1.00E+00	0
65	65	1	1.00E-03	1.00E+00	0
66	66	1	1.00E-03	1.00E+00	0
67	67	1	1.00E-03	1.00E+00	0
68	68	1	1.00E-03	1.00E+00	0
69	69	1	1.00E-03	1.00E+00	0
70	70	1	1.00E-03	1.00E+00	0
71	71	1	1.00E-03	1.00E+00	0
72	72	1	1.00E-03	1.00E+00	0
73	73	1	1.00E-03	1.00E+00	0
74	74	1	1.00E-03	1.00E+00	0
75	75	1	1.00E-03	1.00E+00	0
76	76	1	1.00E-03	1.00E+00	0
77	77	1	1.00E-03	1.00E+00	0
78	78	1	1.00E-03	1.00E+00	0
79	79	1	1.00E-03	1.00E+00	0
80	80	1	1.00E-03	1.00E+00	0
81	81	1	1.00E-03	1.00E+00	0
82	82	1	1.00E-03	1.00E+00	0
83	83	1	1.00E-03	1.00E+00	0
84	84	1	1.00E-03	1.00E+00	0
85	85	1	1.00E-03	1.00E+00	0
86	86	1	1.00E-03	1.00E+00	0
87	87	1	1.00E-03	1.00E+00	0
88	88	1	1.00E-03	1.00E+00	0
89	89	1	1.00E-03	1.00E+00	0
90	90	1	1.00E-03	1.00E+00	0
91	91	1	1.00E-03	1.00E+00	0
92	92	1	1.00E-03	1.00E+00	0
93	93	1	1.00E-03	1.00E+00	0
94	94	1	1.00E-03	1.00E+00	0
95	95	1	1.00E-03	1.00E+00	0
96	96	1	1.00E-03	1.00E+00	0
97	97	1	1.00E-03	1.00E+00	0
98	98	1	1.00E-03	1.00E+00	0
99	99	1	1.00E-03	1.00E+00	0
100	100	1	1.00E-03	1.00E+00	0
101	101	1	1.00E-03	1.00E+00	0
1  0.0548000  1e-6  1e-6
INTERNAL  1  (FREE)  -1  CLn()
 0.000000e+00 5.000000e-01
 0.000000e+00 5.000000e-01 5.000000e-01
 0.000000e+00 5.000000e-01 5.000000e-01
 0.000000e+00 5.000000e-01 5.000000e-01
 0.000000e+00 5.000000e-01 5.000000e-01
 0.000000e+00 5.000000e-01 5.000000e-01
 0.000000e+00 5.000000e-01 5.000000e-01
 0.000000e+00 5.000000e-01 5.000000e-01
 0.000000e+00 5.000000e-01 5.000000e-01
 0.000000e+00 5.000000e-01 5.000000e-01
 0.000000e+00 5.000000e-01 5.000000e-01
 0.000000e+00 5.000000e-01 5.000000e-01
 0.000000e+00 5.000000e-01 5.000000e-01
 0.000000e+00 5.000000e-01 5.000000e-01
 0.000000e+00 5.000000e-01 5.000000e-01
 0.000000e+00 5.000000e-01 5.000000e-01
 0.000000e+00 5.000000e-01 5.000000e-01
 0.000000e+00 5.000000e-01 5.000000e-01
 0.000000e+00 5.000000e-01 5.000000e-01
 0.000000e+00 5.000000e-01 5.000000e-01
 0.000000e+00 5.000000e-01 5.000000e-01
 0.000000e+00 5.000000e-01 5.000000e-01
 0.000000e+00 5.000000e-01 5.000000e-01
 0.000000e+00 5.000000e-01 5.000000e-01
 0.000000e+00 5.000000e-01 5.000000e-01
 0.000000e+00 5.000000e-01 5.000000e-01
 0.000000e+00 5.000000e-01 5.000000e-01
 0.000000e+00 5.000000e-01 5.000000e-01
 0.000000e+00 5.000000e-01 5.000000e-01
 0.000000e+00 5.000000e-01 5.000000e-01
 0.000000e+00 5.000000e-01 5.000000e-01
 0.000000e+00 5.000000e-01 5.000000e-01
 0.000000e+00 5.000000e-01 5.000000e-01
 0.000000e+00 5.000000e-01 5.000000e-01
 0.000000e+00 5.000000e-01 5.000000e-01
 0.000000e+00 5.000000e-01 5.000000e-01
 0.000000e+00 5.000000e-01 5.000000e-01
 0.000000e+00 5.000000e-01 5.000000e-01
 0.000000e+00 5.000000e-01 5.000000e-01
 0.000000e+00 5.000000e-01 5.000000e-01
 0.000000e+00 5.000000e-01 5.000000e-01
 0.000000e+00 5.000000e-01 5.000000e-01
 0.000000e+00 5.000000e-01 5.000000e-01
 0.000000e+00 5.000000e-01 5.000000e-01
 0.000000e+00 5.000000e-01 5.000000e-01
 0.000000e+00 5.000000e-01 5.000000e-01
 0.000000e+00 5.000000e-01 5.000000e-01
 0.000000e+00 5.000000e-01 5.000000e-01
 0.000000e+00 5.000000e-01 5.000000e-01
 0.000000e+00 5.000000e-01 5.000000e-01
 0.000000e+00 5.000000e-01 5.000000e-01
 0.000000e+00 5.000000e-01 5.000000e-01
 0.000000e+00 5.000000e-01 5.000000e-01
 0.000000e+00 5.000000e-01 5.000000e-01
 0.000000e+00 5.000000e-01 5.000000e-01
 0.000000e+00 5.000000e-01 5.000000e-01
 0.000000e+00 5.000000e-01 5.000000e-01
 0.000000e+00 5.000000e-01 5.000000e-01
 0.000000e+00 5.000000e-01 5.000000e-01
 0.000000e+00 5.000000e-01 5.000000e-01
 0.000000e+00 5.000000e-01 5.000000e-01
 0.000000e+00 5.000000e-01 5.000000e-01
 0.000000e+00 5.000000e-01 5.000000e-01
 0.000000e+00 5.000000e-01 5.000000e-01
 0.000000e+00 5.000000e-01 5.000000e-01
 0.000000e+00 5.000000e-01 5.000000e-01
 0.000000e+00 5.000000e-01 5.000000e-01
 0.000000e+00 5.000000e-01 5.000000e-01
 0.000000e+00 5.000000e-01 5.000000e-01
 0.000000e+00 5.000000e-01 5.000000e-01
 0.000000e+00 5.000000e-01 5.000000e-01
 0.000000e+00 5.000000e-01 5.000000e-01
 0.000000e+00 5.000000e-01 5.000000e-01
 0.000000e+00 5.000000e-01 5.000000e-01
 0.000000e+00 5.000000e-01 5.000000e-01
 0.000000e+00 5.000000e-01 5.000000e-01
 0.000000e+00 5.000000e-01 5.000000e-01
 0.000000e+00 5.000000e-01 5.000000e-01
 0.000000e+00 5.000000e-01 5.000000e-01
 0.000000e+00 5.000000e-01 5.000000e-01
 0.000000e+00 5.000000e-01 5.000000e-01
 0.000000e+00 5.000000e-01 5.000000e-01
 0.000000e+00 5.000000e-01 5.000000e-01
 0.000000e+00 5.000000e-01 5.000000e-01
 0.000000e+00 5.000000e-01 5.000000e-01
 0.000000e+00 5.000000e-01 5.000000e-01
 0.000000e+00 5.000000e-01 5.000000e-01
 0.000000e+00 5.000000e-01 5.000000e-01
 0.000000e+00 5.000000e-01 5.000000e-01
 0.000000e+00 5.000000e-01 5.000000e-01
 0.000000e+00 5.000000e-01 5.000000e-01
 0.000000e+00 5.000000e-01 5.000000e-01
 0.000000e+00 5.000000e-01 5.000000e-01
 0.000000e+00 5.000000e-01 5.000000e-01
 0.000000e+00 5.000000e-01 5.000000e-01
 0.000000e+00 5.000000e-01 5.000000e-01
 0.000000e+00 5.000000e-01 5.000000e-01
 0.000000e+00 5.000000e-01 5.000000e-01
 0.000000e+00 5.000000e-01 5.000000e-01
 0.000000e+00 5.000000e-01 5.000000e-01
 0.000000e+00 5.000000e-01
INTERNAL  1  (FREE)  -1  FAHL()
 0.000000e+00 1.000000e+00
 0.000000e+00 1.000000e+00 1.000000e+00
 0.000000e+00 1.000000e+00 1.000000e+00
 0.000000e+00 1.000000e+00 1.000000e+00
 0.000000e+00 1.000000e+00 1.000000e+00
 0.000000e+00 1.000000e+00 1.000000e+00
 0.000000e+00 1.000000e+00 1.000000e+00
 0.000000e+00 1.000000e+00 1.000000e+00
 0.000000e+00 1.000000e+00 1.000000e+00
 0.000000e+00 1.000000e+00 1.000000e+00
 0.000000e+00 1.000000e+00 1.000000e+00
 0.000000e+00 1.000000e+00 1.000000e+00
 0.000000e+00 1.000000e+00 1.000000e+00
 0.000000e+00 1.000000e+00 1.000000e+00
 0.000000e+00 1.000000e+00 1.000000e+00
 0.000000e+00 1.000000e+00 1.000000e+00
 0.000000e+00 1.000000e+00 1.000000e+00
 0.000000e+00 1.000000e+00 1.000000e+00
 0.000000e+00 1.000000e+00 1.000000e+00
 0.000000e+00 1.000000e+00 1.000000e+00
 0.000000e+00 1.000000e+00 1.000000e+00
 0.000000e+00 1.000000e+00 1.000000e+00
 0.000000e+00 1.000000e+00 1.000000e+00
 0.000000e+00 1.000000e+00 1.000000e+00
 0.000000e+00 1.000000e+00 1.000000e+00
 0.000000e+00 1.000000e+00 1.000000e+00
 0.000000e+00 1.000000e+00 1.000000e+00
 0.000000e+00 1.000000e+00 1.000000e+00
 0.000000e+00 1.000000e+00 1.000000e+00
 0.000000e+00 1.000000e+00 1.000000e+00
 0.000000e+00 1.000000e+00 1.000000e+00
 0.000000e+00 1.000000e+00 1.000000e+00
 0.000000e+00 1.000000e+00 1.000000e+00
 0.000000e+00 1.000000e+00 1.000000e+00
 0.000000e+00 1.000000e+00 1.000000e+00
 0.000000e+00 1.000000e+00 1.000000e+00
 0.000000e+00 1.000000e+00 1.000000e+00
 0.000000e+00 1.000000e+00 1.000000e+00
 0.000000e+00 1.000000e+00 1.000000e+00
 0.000000e+00 1.000000e+00 1.000000e+00
 0.000000e+00 1.000000e+00 1.000000e+00
 0.000000e+00 1.000000e+00 1.000000e+00
 0.000000e+00 1.000000e+00 1.000000e+00
 0.000000e+00 1.000000e+00 1.000000e+00
 0.000000e+00 1.000000e+00 1.000000e+00
 0.000000e+00 1.000000e+00 1.000000e+00
 0.000000e+00 1.000000e+00 1.000000e+00
 0.000000e+00 1.000000e+00 1.000000e+00
 0.000000e+00 1.000000e+00 1.000000e+00
 0.000000e+00 1.000000e+00 1.000000e+00
 0.000000e+00 1.000000e+00 1.000000e+00
 0.000000e+00 1.000000e+00 1.000000e+00
 0.000000e+00 1.000000e+00 1.000000e+00
 0.000000e+00 1.000000e+00 1.000000e+00
 0.000000e+00 1.000000e+00 1.000000e+00
 0.000000e+00 1.000000e+00 1.000000e+00
 0.000000e+00 1.000000e+00 1.000000e+00
 0.000000e+00 1.000000e+00 1.000000e+00
 0.000000e+00 1.000000e+00 1.000000e+00
 0.000000e+00 1.000000e+00 1.000000e+00
 0.000000e+00 1.000000e+00 1.000000e+00
 0.000000e+00 1.000000e+00 1.000000e+00
 0.000000e+00 1.000000e+00 1.000000e+00
 0.000000e+00 1.000000e+00 1.000000e+00
 0.000000e+00 1.000000e+00 1.000000e+00
 0.000000e+00 1.000000e+00 1.000000e+00
 0.000000e+00 1.000000e+00 1.000000e+00
 0.000000e+00 1.000000e+00 1.000000e+00
 0.000000e+00 1.000000e+00 1.000000e+00
 0.000000e+00 1.000000e+00 1.000000e+00
 0.000000e+00 1.000000e+00 1.000000e+00
 0.000000e+00 1.000000e+00 1.000000e+00
 0.000000e+00 1.000000e+00 1.000000e+00
 0.000000e+00 1.000000e+00 1.000000e+00
 0.000000e+00 1.000000e+00 1.000000e+00
 0.000000e+00 1.000000e+00 1.000000e+00
 0.000000e+00 1.000000e+00 1.000000e+00
 0.000000e+00 1.000000e+00 1.000000e+00
 0.000000e+00 1.000000e+00 1.000000e+00
 0.000000e+00 1.000000e+00 1.000000e+00
 0.000000e+00 1.000000e+00 1.000000e+00
 0.000000e+00 1.000000e+00 1.000000e+00
 0.000000e+00 1.000000e+00 1.000000e+00
 0.000000e+00 1.000000e+00 1.000000e+00
 0.000000e+00 1.000000e+00 1.000000e+00
 0.000000e+00 1.000000e+00 1.000000e+00
 0.000000e+00 1.000000e+00 1.000000e+00
 0.000000e+00 1.000000e+00 1.000000e+00
 0.000000e+00 1.000000e+00 1.000000e+00
 0.000000e+00 1.000000e+00 1.000000e+00
 0.000000e+00 1.000000e+00 1.000000e+00
 0.000000e+00 1.000000e+00 1.000000e+00
 0.000000e+00 1.000000e+00 1.000000e+00
 0.000000e+00 1.000000e+00 1.000000e+00
 0.000000e+00 1.000000e+00 1.000000e+00
 0.000000e+00 1.000000e+00 1.000000e+00
 0.000000e+00 1.000000e+00 1.000000e+00
 0.000000e+00 1.000000e+00 1.000000e+00
 0.000000e+00 1.000000e+00 1.000000e+00
 0.000000e+00 1.000000e+00 1.000000e+00
 0.000000e+00 1.000000e+00
CONSTANT   1                               IBOUND
INTERNAL  1.000000e+000  (FREE)  -1  Starting Heads
 2.050000e+00 1.990000e+00 1.980000e+00 1.970000e+00 1.960000e+00 1.950000e+00 1.940000e+00 1.930000e+00 1.920000e+00 1.910000e+00
 1.900000e+00 1.890000e+00 1.880000e+00 1.870000e+00 1.860000e+00 1.850000e+00 1.840000e+00 1.830000e+00 1.820000e+00 1.810000e+00
 1.800000e+00 1.790000e+00 1.780000e+00 1.770000e+00 1.760000e+00 1.750000e+00 1.740000e+00 1.730000e+00 1.720000e+00 1.710000e+00
 1.700000e+00 1.690000e+00 1.680000e+00 1.670000e+00 1.660000e+00 1.650000e+00 1.640000e+00 1.630000e+00 1.620000e+00 1.610000e+00
 1.600000e+00 1.590000e+00 1.580000e+00 1.570000e+00 1.560000e+00 1.550000e+00 1.540000e+00 1.530000e+00 1.520000e+00 1.510000e+00
 1.500000e+00 1.490000e+00 1.480000e+00 1.470000e+00 1.460000e+00 1.450000e+00 1.440000e+00 1.430000e+00 1.420000e+00 1.410000e+00
 1.400000e+00 1.390000e+00 1.380000e+00 1.370000e+00 1.360000e+00 1.350000e+00 1.340000e+00 1.330000e+00 1.320000e+00 1.310000e+00
 1.300000e+00 1.290000e+00 1.280000e+00 1.270000e+00 1.260000e+00 1.250000e+00 1.240000e+00 1.230000e+00 1.220000e+00 1.210000e+00
 1.200000e+00 1.190000e+00 1.180000e+00 1.170000e+00 1.160000e+00 1.150000e+00 1.140000e+00 1.130000e+00 1.120000e+00 1.110000e+00
 1.100000e+00 1.090000e+00 1.080000e+00 1.070000e+00 1.060000e+00 1.050000e+00 1.040000e+00 1.030000e+00 1.020000e+00 1.010000e+00
 1.010000e+00
